DIMENSION: 8
EDGE_WEIGHT_TYPE: EXPLICIT
EDGE_WEIGHT_FORMAT: FULL_MATRIX
EDGE_WEIGHT_SECTION:
32767 98 31 32767 69 32767 49 3 
98 32767 94 24 86 90 32767 99 
31 94 32767 32 12 50 32767 49 
32767 24 32 32767 16 72 99 38 
69 86 12 16 32767 96 32767 89 
32767 90 50 72 96 32767 80 61 
49 32767 32767 99 32767 80 32767 92 
3 99 49 38 89 61 92 32767 
EOF